# Solution for model r10_t36_m7_1
# Finished Task: 35 / 36
# Makespan: 679.0, Total Distance: 1487.0, Total Time: 0.5354
# R O S F
0 0 34 0.0 0.0
1 1 39 0.0 0.0
2 2 43 0.0 0.0
3 3 10 0.0 0.0
4 4 12 0.0 0.0
5 5 21 0.0 0.0
6 6 25 0.0 0.0
7 7 32 0.0 0.0
8 8 33 0.0 0.0
9 9 35 0.0 0.0
10 3 14 76.0 114.0
11 8 -1 652.0 679.0
12 4 19 158.0 192.0
13 6 15 560.0 588.0
14 3 28 427.0 464.0
15 6 -1 611.0 636.0
16 7 45 472.0 499.0
17 7 42 608.0 628.0
18 -1 -1 -1.0 -1.0
19 4 22 387.0 420.0
20 5 29 472.0 496.0
21 5 37 335.0 366.0
22 4 36 513.0 550.0
23 1 27 517.0 550.0
24 8 11 563.0 589.0
25 6 26 409.0 448.0
26 6 31 475.0 501.0
27 1 -1 618.0 648.0
28 3 -1 610.0 641.0
29 5 -1 604.0 629.0
30 2 -1 622.0 653.0
31 6 13 524.0 550.0
32 7 16 423.0 460.0
33 8 40 390.0 422.0
34 0 38 542.0 577.0
35 9 41 345.0 384.0
36 4 -1 564.0 591.0
37 5 20 435.0 470.0
38 0 -1 637.0 669.0
39 1 23 468.0 502.0
40 8 24 494.0 533.0
41 9 44 502.0 530.0
42 7 -1 636.0 665.0
43 2 30 579.0 610.0
44 9 -1 629.0 651.0
45 7 17 554.0 577.0
